id: 254
name: bas1lp
group: meszaros/misc
method: 2

Gurobi 7.0.2 (linux64, Matlab) logging started Mon Mar 26 10:08:36 2018


Gurobi 7.0.2 (linux64) logging started Mon Mar 26 10:08:36 2018

Optimize a model with 5411 rows, 4461 columns and 582411 nonzeros
Coefficient statistics:
  Matrix range     [1e+00, 1e+01]
  Objective range  [4e+02, 4e+02]
  Bounds range     [1e+00, 1e+00]
  RHS range        [1e+00, 2e+01]
Presolve removed 2 rows and 18 columns
Presolve time: 0.08s
Presolved: 5409 rows, 4443 columns, 582390 nonzeros

Ordering time: 0.03s

Barrier statistics:
 AA' NZ     : 1.296e+06
 Factor NZ  : 3.563e+06 (roughly 30 MBytes of memory)
 Factor Ops : 3.241e+09 (less than 1 second per iteration)
 Threads    : 4

                  Objective                Residual
Iter       Primal          Dual         Primal    Dual     Compl     Time
   0   3.63000000e+02  3.63000000e+02  9.76e+02 0.00e+00  1.38e-01     0s
   1   3.63000000e+02  3.37780597e+02  5.68e+02 3.84e-02  7.38e-02     1s
   2   3.63000000e+02  3.26484551e+02  2.01e+02 7.15e-03  2.61e-02     1s
   3   3.63000000e+02  3.34980936e+02  5.32e+01 1.29e-03  7.74e-03     1s
   4   3.63000000e+02  3.49803977e+02  8.56e+00 6.44e-05  1.72e-03     1s
   5   3.63000000e+02  3.56977033e+02  2.16e+00 0.00e+00  5.68e-04     1s
   6   3.63000000e+02  3.61757503e+02  2.56e-02 0.00e+00  8.80e-05     1s
   7   3.63000000e+02  3.62998752e+02  6.92e-06 3.49e-16  8.76e-08     1s
   8   3.63000000e+02  3.62999999e+02  4.10e-09 2.24e-16  8.76e-11     1s
   9   3.63000000e+02  3.63000000e+02  1.63e-13 2.08e-16  8.76e-14     1s

Barrier solved model in 9 iterations and 1.11 seconds
Optimal objective 3.63000000e+02

Crossover log...

       0 DPushes remaining with DInf 0.0000000e+00                 1s

    4373 PPushes remaining with PInf 0.0000000e+00                 1s
       0 PPushes remaining with PInf 0.0000000e+00                 1s

  Push phase complete: Pinf 0.0000000e+00, Dinf 0.0000000e+00      1s

Iteration    Objective       Primal Inf.    Dual Inf.      Time
    4386    3.6300000e+02   0.000000e+00   0.000000e+00      1s
    4386    3.6300000e+02   0.000000e+00   0.000000e+00      1s

Solved in 4386 iterations and 1.26 seconds
Optimal objective  3.630000000e+02
status: OPTIMAL
